set VV := 0 1 2 3 4 5 6 7 8 9 10 11 12 13 14 15 16 17 18 19 20 21 22 23 ;
set VS := 0 1 2 3 4 5 6 7 8 9 10 11 12 13 14 15 16 17 18 19 20 21 22 23 24 25 26 27 28 29 30 31 32 33 34 35 36 37 38 39 40 41 42 43 44 45 46 47 48 49 50 51 ;
param cv := 
0 13
1 15
2 19
3 12
4 15
5 20
6 14
7 17
8 19
9 21
10 10
11 20
12 17
13 17
14 14
15 22
16 23
17 17
18 20
19 12
20 17
21 20
22 24
23 13
;
param cs := 
0 31
1 22
2 40
3 40
4 38
5 37
6 37
7 28
8 31
9 39
10 39
11 35
12 23
13 23
14 30
15 33
16 40
17 25
18 37
19 39
20 31
21 34
22 35
23 34
24 29
25 36
26 30
27 40
28 26
29 22
30 35
31 35
32 28
33 23
34 27
35 30
36 22
37 29
38 27
39 39
40 34
41 24
42 30
43 27
44 36
45 34
46 20
47 32
48 23
49 39
50 27
51 34
;
param bv:	 0 1 2 3 4 5 6 7 8 9 10 11 12 13 14 15 16 17 18 19 20 21 22 23 := 
		0 0 0 0 0 0 0 0 0 0 0 0 0 25 0 14 0 18 10 0 0 0 0 0 0 
		1 0 0 12 0 0 10 0 0 0 0 0 0 0 0 0 0 0 24 0 0 0 0 0 0 
		2 0 0 0 0 0 0 0 0 0 0 0 0 0 0 0 0 20 10 0 0 0 0 0 0 
		3 0 0 0 0 0 15 0 0 0 0 0 18 0 0 22 0 0 15 0 0 0 0 0 23 
		4 0 0 0 0 0 0 0 0 0 0 14 0 0 0 0 0 0 0 0 0 0 0 0 0 
		5 0 0 0 0 0 0 0 0 0 0 17 23 0 0 0 0 0 12 0 0 0 0 0 0 
		6 0 0 0 0 0 0 0 0 0 0 20 0 0 0 0 0 17 0 0 0 0 16 0 0 
		7 0 0 0 0 0 0 0 0 0 0 0 0 0 0 0 0 0 0 0 0 0 15 0 0 
		8 0 0 0 0 0 0 0 0 0 0 21 0 0 0 0 0 0 0 11 14 0 0 0 14 
		9 0 0 0 0 0 0 0 0 0 0 0 0 19 0 21 21 0 0 0 0 0 0 0 0 
		10 0 0 0 0 0 0 0 0 0 0 0 0 0 0 0 0 0 0 20 0 14 0 0 0 
		11 0 0 0 0 0 0 0 0 0 0 0 0 14 22 0 0 0 0 0 25 0 0 0 0 
		12 0 0 0 0 0 0 0 0 0 0 0 0 0 0 0 13 0 0 0 0 0 0 0 0 
		13 0 0 0 0 0 0 0 0 0 0 0 0 0 0 0 0 0 0 0 0 17 0 0 15 
		14 0 0 0 0 0 0 0 0 0 0 0 0 0 0 0 0 0 16 0 0 0 0 0 0 
		15 0 0 0 0 0 0 0 0 0 0 0 0 0 0 0 0 0 0 0 0 0 0 10 22 
		16 0 0 0 0 0 0 0 0 0 0 0 0 0 0 0 0 0 0 0 0 0 0 0 0 
		17 0 0 0 0 0 0 0 0 0 0 0 0 0 0 0 0 0 0 0 16 0 0 0 0 
		18 0 0 0 0 0 0 0 0 0 0 0 0 0 0 0 0 0 0 0 0 0 0 0 0 
		19 0 0 0 0 0 0 0 0 0 0 0 0 0 0 0 0 0 0 0 0 0 0 0 0 
		20 0 0 0 0 0 0 0 0 0 0 0 0 0 0 0 0 0 0 0 0 0 0 0 25 
		21 0 0 0 0 0 0 0 0 0 0 0 0 0 0 0 0 0 0 0 0 0 0 0 0 
		22 0 0 0 0 0 0 0 0 0 0 0 0 0 0 0 0 0 0 0 0 0 0 0 0 
		23 0 0 0 0 0 0 0 0 0 0 0 0 0 0 0 0 0 0 0 0 0 0 0 0 
;
param bs:	 0 1 2 3 4 5 6 7 8 9 10 11 12 13 14 15 16 17 18 19 20 21 22 23 24 25 26 27 28 29 30 31 32 33 34 35 36 37 38 39 40 41 42 43 44 45 46 47 48 49 50 51 := 
		0 0 0 0 34 0 0 0 0 0 0 23 0 0 26 0 0 29 0 0 0 0 0 0 33 0 0 0 0 0 0 0 0 0 0 0 0 0 0 0 0 37 0 0 0 0 0 0 0 0 0 0 0 
		1 0 0 0 0 0 0 0 0 0 0 39 0 0 0 0 39 0 0 0 0 0 0 37 0 25 0 0 0 0 0 0 0 30 0 0 32 0 0 38 36 0 0 0 0 0 0 0 0 0 0 0 0 
		2 0 0 0 0 0 0 33 0 0 0 0 0 0 0 0 0 0 0 0 0 0 0 36 0 0 0 0 0 0 0 38 0 0 0 0 0 0 0 0 0 0 0 0 0 0 0 0 0 0 0 0 0 
		3 34 0 0 0 0 0 0 0 20 0 0 0 0 26 0 0 27 0 0 29 0 0 0 0 0 0 0 0 0 0 0 0 0 0 0 0 38 29 0 0 0 0 0 0 0 0 0 0 0 0 0 0 
		4 0 0 0 0 0 0 0 0 30 0 0 30 0 0 37 26 0 0 0 0 0 0 0 0 0 0 0 0 0 0 0 0 0 0 0 0 0 0 0 23 0 0 0 0 0 0 0 0 0 0 0 0 
		5 0 0 0 0 0 0 35 0 0 0 0 0 0 0 0 0 0 20 0 0 0 0 30 0 32 0 0 0 0 0 0 0 0 0 0 0 0 0 0 0 0 0 0 0 0 0 0 0 0 0 35 0 
		6 0 0 33 0 0 35 0 0 0 0 0 0 0 0 0 0 0 0 0 0 0 0 33 0 0 0 23 0 0 0 0 0 0 0 0 0 0 0 0 0 0 0 0 0 0 0 0 0 0 30 0 0 
		7 0 0 0 0 0 0 0 0 0 0 0 0 0 0 0 0 22 0 0 0 0 0 0 0 35 20 25 0 0 0 23 0 0 0 0 0 0 0 38 0 0 0 0 0 0 0 0 0 0 38 28 0 
		8 0 0 0 20 30 0 0 0 0 0 0 0 0 0 0 0 0 0 0 35 0 0 26 0 0 0 0 0 0 0 0 0 0 0 0 0 0 0 24 0 34 0 0 0 26 0 0 0 0 0 0 0 
		9 0 0 0 0 0 0 0 0 0 0 0 0 0 0 0 0 0 0 0 0 0 0 30 0 0 0 0 0 0 0 40 0 0 36 0 0 0 0 0 0 0 21 0 22 0 0 0 0 0 0 0 0 
		10 23 39 0 0 0 0 0 0 0 0 0 0 0 0 0 0 28 0 0 0 0 0 27 0 0 0 0 0 0 0 0 0 0 0 0 0 33 0 37 0 0 0 0 0 0 0 0 0 0 0 0 0 
		11 0 0 0 0 30 0 0 0 0 0 0 0 0 22 0 28 0 0 0 0 0 0 0 0 0 0 0 21 0 0 0 23 0 0 0 0 0 0 0 40 0 0 0 0 0 0 0 0 0 0 0 0 
		12 0 0 0 0 0 0 0 0 0 0 0 0 0 0 0 0 0 26 0 0 0 0 0 0 0 0 0 0 0 0 0 0 0 0 0 0 0 0 0 0 0 0 40 0 0 31 39 0 0 0 0 0 
		13 26 0 0 26 0 0 0 0 0 0 0 22 0 0 0 0 0 0 0 0 0 0 0 0 0 0 0 0 0 0 0 37 0 0 0 0 0 0 0 0 39 0 0 0 22 0 0 0 29 0 0 0 
		14 0 0 0 0 37 0 0 0 0 0 0 0 0 0 0 29 0 32 0 22 0 0 0 30 0 0 0 0 0 0 0 0 0 0 0 0 0 0 0 35 0 37 0 39 40 23 0 39 28 0 0 0 
		15 0 39 0 0 26 0 0 0 0 0 0 28 0 0 29 0 0 0 0 0 0 0 0 0 0 0 0 31 0 0 0 0 0 0 0 0 0 31 0 25 0 0 0 0 0 0 0 0 0 0 0 38 
		16 29 0 0 27 0 0 0 22 0 0 28 0 0 0 0 0 0 0 0 0 0 0 0 0 0 0 0 38 0 0 0 0 28 0 0 38 0 0 21 0 0 0 0 0 0 0 0 0 0 0 35 0 
		17 0 0 0 0 0 20 0 0 0 0 0 0 26 0 32 0 0 0 0 0 0 0 0 0 0 0 0 0 0 0 0 0 0 0 0 0 0 0 0 34 0 0 24 0 0 0 0 33 0 0 0 0 
		18 0 0 0 0 0 0 0 0 0 0 0 0 0 0 0 0 0 0 0 22 0 0 0 0 0 0 39 0 0 0 0 0 0 0 0 0 0 0 29 0 0 0 0 0 34 0 0 0 0 0 0 0 
		19 0 0 0 29 0 0 0 0 35 0 0 0 0 0 22 0 0 0 22 0 0 0 0 0 27 21 39 20 0 0 0 0 0 0 0 0 0 0 0 0 0 0 0 0 0 0 22 0 0 0 35 0 
		20 0 0 0 0 0 0 0 0 0 0 0 0 0 0 0 0 0 0 0 0 0 0 0 31 0 0 0 0 0 0 0 0 0 0 0 0 24 0 0 0 0 0 0 0 0 22 0 0 0 0 27 0 
		21 0 0 0 0 0 0 0 0 0 0 0 0 0 0 0 0 0 0 0 0 0 0 0 0 0 0 0 0 0 0 0 0 0 0 0 0 0 0 0 0 0 0 0 0 24 0 0 0 0 0 0 0 
		22 0 37 36 0 0 30 33 0 26 30 27 0 0 0 0 0 0 0 0 0 0 0 0 0 32 0 0 0 0 0 0 0 30 0 0 0 0 0 35 0 0 28 0 0 0 0 0 0 0 0 0 0 
		23 33 0 0 0 0 0 0 0 0 0 0 0 0 0 30 0 0 0 0 0 31 0 0 0 0 0 29 0 29 0 0 0 0 0 0 0 0 34 0 0 0 0 0 0 0 0 0 0 0 0 0 0 
		24 0 25 0 0 0 32 0 35 0 0 0 0 0 0 0 0 0 0 0 27 0 0 32 0 0 0 0 0 0 0 0 0 0 0 0 0 36 28 0 0 0 0 0 0 36 0 0 39 0 0 0 0 
		25 0 0 0 0 0 0 0 20 0 0 0 0 0 0 0 0 0 0 0 21 0 0 0 0 0 0 0 0 0 0 0 0 0 0 0 0 0 0 0 0 0 0 0 0 0 23 0 0 0 0 23 0 
		26 0 0 0 0 0 0 23 25 0 0 0 0 0 0 0 0 0 0 39 39 0 0 0 29 0 0 0 0 0 0 0 0 0 0 0 27 0 0 37 0 0 39 0 0 37 28 0 0 0 26 0 0 
		27 0 0 0 0 0 0 0 0 0 0 0 21 0 0 0 31 38 0 0 20 0 0 0 0 0 0 0 0 0 0 0 0 0 0 0 0 21 0 24 0 0 25 0 0 0 0 22 0 0 34 0 27 
		28 0 0 0 0 0 0 0 0 0 0 0 0 0 0 0 0 0 0 0 0 0 0 0 29 0 0 0 0 0 0 0 0 28 0 0 0 29 0 0 0 0 0 0 0 0 0 0 0 0 0 0 0 
		29 0 0 0 0 0 0 0 0 0 0 0 0 0 0 0 0 0 0 0 0 0 0 0 0 0 0 0 0 0 0 0 0 0 0 0 0 0 0 0 0 0 0 0 0 0 0 0 0 0 32 0 0 
		30 0 0 38 0 0 0 0 23 0 40 0 0 0 0 0 0 0 0 0 0 0 0 0 0 0 0 0 0 0 0 0 0 0 0 0 0 0 0 0 0 26 0 0 0 0 30 0 0 0 0 31 0 
		31 0 0 0 0 0 0 0 0 0 0 0 23 0 37 0 0 0 0 0 0 0 0 0 0 0 0 0 0 0 0 0 0 0 0 0 21 0 0 0 0 0 0 0 0 0 0 0 0 0 0 0 0 
		32 0 30 0 0 0 0 0 0 0 0 0 0 0 0 0 0 28 0 0 0 0 0 30 0 0 0 0 0 28 0 0 0 0 0 0 0 26 0 0 0 0 0 0 0 0 0 0 0 0 35 32 0 
		33 0 0 0 0 0 0 0 0 0 36 0 0 0 0 0 0 0 0 0 0 0 0 0 0 0 0 0 0 0 0 0 0 0 0 0 0 0 0 0 0 0 0 0 0 0 0 0 0 0 0 0 0 
		34 0 0 0 0 0 0 0 0 0 0 0 0 0 0 0 0 0 0 0 0 0 0 0 0 0 0 0 0 0 0 0 0 0 0 0 0 0 0 0 0 0 0 0 0 0 33 0 0 0 0 36 0 
		35 0 32 0 0 0 0 0 0 0 0 0 0 0 0 0 0 38 0 0 0 0 0 0 0 0 0 27 0 0 0 0 21 0 0 0 0 0 0 0 0 0 29 0 0 0 0 0 0 39 0 0 0 
		36 0 0 0 38 0 0 0 0 0 0 33 0 0 0 0 0 0 0 0 0 24 0 0 0 36 0 0 21 29 0 0 0 26 0 0 0 0 0 0 0 0 0 34 0 0 40 0 0 0 0 0 0 
		37 0 0 0 29 0 0 0 0 0 0 0 0 0 0 0 31 0 0 0 0 0 0 0 34 28 0 0 0 0 0 0 0 0 0 0 0 0 0 35 0 0 0 0 0 0 0 0 0 0 0 0 0 
		38 0 38 0 0 0 0 0 38 24 0 37 0 0 0 0 0 21 0 29 0 0 0 35 0 0 0 37 24 0 0 0 0 0 0 0 0 0 35 0 0 0 38 0 0 0 0 20 0 0 0 33 0 
		39 0 36 0 0 23 0 0 0 0 0 0 40 0 0 35 25 0 34 0 0 0 0 0 0 0 0 0 0 0 0 0 0 0 0 0 0 0 0 0 0 0 0 0 0 0 0 0 34 0 0 30 0 
		40 37 0 0 0 0 0 0 0 34 0 0 0 0 39 0 0 0 0 0 0 0 0 0 0 0 0 0 0 0 0 26 0 0 0 0 0 0 0 0 0 0 31 22 0 0 0 0 0 0 0 28 0 
		41 0 0 0 0 0 0 0 0 0 21 0 0 0 0 37 0 0 0 0 0 0 0 28 0 0 0 39 25 0 0 0 0 0 0 0 29 0 0 38 0 31 0 32 0 0 0 0 0 0 0 29 0 
		42 0 0 0 0 0 0 0 0 0 0 0 0 40 0 0 0 0 24 0 0 0 0 0 0 0 0 0 0 0 0 0 0 0 0 0 0 34 0 0 0 22 32 0 0 0 0 0 0 0 0 0 26 
		43 0 0 0 0 0 0 0 0 0 22 0 0 0 0 39 0 0 0 0 0 0 0 0 0 0 0 0 0 0 0 0 0 0 0 0 0 0 0 0 0 0 0 0 0 0 0 0 0 0 0 0 0 
		44 0 0 0 0 0 0 0 0 26 0 0 0 0 22 40 0 0 0 34 0 0 24 0 0 36 0 37 0 0 0 0 0 0 0 0 0 0 0 0 0 0 0 0 0 0 0 0 0 29 29 0 0 
		45 0 0 0 0 0 0 0 0 0 0 0 0 31 0 23 0 0 0 0 0 22 0 0 0 0 23 28 0 0 0 30 0 0 0 33 0 40 0 0 0 0 0 0 0 0 0 0 0 0 28 0 0 
		46 0 0 0 0 0 0 0 0 0 0 0 0 39 0 0 0 0 0 0 22 0 0 0 0 0 0 0 22 0 0 0 0 0 0 0 0 0 0 20 0 0 0 0 0 0 0 0 0 0 0 0 0 
		47 0 0 0 0 0 0 0 0 0 0 0 0 0 0 39 0 0 33 0 0 0 0 0 0 39 0 0 0 0 0 0 0 0 0 0 0 0 0 0 34 0 0 0 0 0 0 0 0 0 0 0 0 
		48 0 0 0 0 0 0 0 0 0 0 0 0 0 29 28 0 0 0 0 0 0 0 0 0 0 0 0 0 0 0 0 0 0 0 0 39 0 0 0 0 0 0 0 0 29 0 0 0 0 0 0 0 
		49 0 0 0 0 0 0 30 38 0 0 0 0 0 0 0 0 0 0 0 0 0 0 0 0 0 0 26 34 0 32 0 0 35 0 0 0 0 0 0 0 0 0 0 0 29 28 0 0 0 0 0 0 
		50 0 0 0 0 0 35 0 28 0 0 0 0 0 0 0 0 35 0 0 35 27 0 0 0 0 23 0 0 0 0 31 0 32 0 36 0 0 0 33 30 28 29 0 0 0 0 0 0 0 0 0 0 
		51 0 0 0 0 0 0 0 0 0 0 0 0 0 0 0 38 0 0 0 0 0 0 0 0 0 0 0 27 0 0 0 0 0 0 0 0 0 0 0 0 0 0 26 0 0 0 0 0 0 0 0 0 
;
